6    8    2
 3  2 1 2 18 2 3 4 22 2 7 8 14
 3  2 1 2 38 2 3 4 40 2 7 8 26
 3  2 3 4 28 2 5 6 40 2 7 8 18
 3  2 3 4 28 2 5 6 40 2 7 8 18
 3  2 1 2 22 2 5 6 32 2 7 8 16
 3  2 1 2 20 2 5 6 24 2 7 8 20